networks/zoo_164_5317/zoo_164_5317.txt
Number of groups: 82
Flow 6: {1 76} {76 7} {7 89} 
Flow 36: {45 41} {41 123} 
Flow 75: {2 76} {76 1} {1 83} 
Flow 214: {3 76} {76 72} {72 154} 
Flow 221: {75 79} {79 161} 
Flow 247: {4 76} {76 75} {75 29} {29 111} 
Flow 303: {5 77} {77 21} {21 103} 
Flow 378: {6 77} {77 34} {34 116} 
Flow 487: {7 76} {76 71} {71 153} 
Flow 509: {8 77} {77 35} {35 117} 
Flow 551: {9 77} {77 23} {23 105} 
Flow 636: {10 77} {77 33} {33 115} 
Flow 732: {11 77} {77 56} {56 138} 
Flow 762: {12 75} {75 52} {52 134} 
Flow 789: {13 77} {77 31} {31 113} 
Flow 833: {14 77} {77 51} {51 133} 
Flow 866: {15 77} {77 27} {27 109} 
Flow 961: {16 77} {77 60} {60 142} 
Flow 1004: {17 77} {77 43} {43 125} 
Flow 1049: {18 77} {77 25} {25 107} 
Flow 1120: {19 77} {77 22} {22 104} 
Flow 1236: {20 77} {77 74} {74 156} 
Flow 1257: {21 77} {77 16} {16 98} 
Flow 1342: {22 77} {77 42} {42 124} 
Flow 1380: {23 77} {77 8} {8 90} 
Flow 1461: {24 77} {77 26} {26 108} 
Flow 1565: {25 77} {77 66} {66 148} 
Flow 1591: {26 77} {77 10} {10 92} 
Flow 1664: {27 77} {77 6} {6 88} 
Flow 1736: {28 77} {77 20} {20 102} 
Flow 1755: {29 75} {75 12} {12 94} 
Flow 1856: {30 77} {77 53} {53 135} 
Flow 1891: {31 77} {77 13} {13 95} 
Flow 2007: {32 77} {77 70} {70 152} 
Flow 2055: {33 77} {77 44} {44 126} 
Flow 2093: {34 77} {77 5} {5 87} 
Flow 2173: {77 17} {17 99} 
Flow 2263: {36 77} {77 55} {55 137} 
Flow 2312: {37 77} {77 45} {45 127} 
Flow 2381: {38 50} {50 132} 
Flow 2405: {50 77} {77 75} {75 157} 
Flow 2468: {73 77} {77 62} {62 144} 
Flow 2479: {39 73} {73 155} 
Flow 2497: {40 35} {35 77} {77 159} 
Flow 2512: {41 45} {45 77} {77 15} {15 97} 
Flow 2578: {42 77} {77 9} {9 91} 
Flow 2625: {43 77} {77 14} {14 96} 
Flow 2686: {44 77} {77 19} {19 101} 
Flow 2832: {46 77} {77 69} {69 151} 
Flow 2861: {47 77} {77 18} {18 100} 
Flow 2955: {48 77} {77 46} {46 128} 
Flow 3006: {49 77} {77 24} {24 106} 
Flow 3171: {51 77} {77 57} {57 139} 
Flow 3274: {52 75} {75 80} {80 162} 
Flow 3285: {53 77} {77 11} {11 93} 
Flow 3345: {54 77} {77 76} {76 3} {3 85} 
Flow 3415: {55 77} {77 67} {67 149} 
Flow 3469: {56 77} {77 54} {54 136} 
Flow 3535: {57 77} {77 48} {48 130} 
Flow 3620: {58 75} {75 61} {61 143} 
Flow 3673: {59 75} {75 77} {77 50} {50 38} {38 120} 
Flow 3767: {60 77} {77 63} {63 145} 
Flow 3789: {61 75} {75 76} {76 158} 
Flow 3824: {62 77} {77 36} {36 118} 
Flow 3924: {63 77} {77 64} {64 146} 
Flow 3969: {64 77} {77 32} {32 114} 
Flow 4057: {65 77} {77 49} {49 131} 
Flow 4117: {66 77} {77 37} {37 119} 
Flow 4180: {67 77} {77 30} {30 112} 
Flow 4271: {35 40} {40 122} 
Flow 4290: {68 75} {75 59} {59 141} 
Flow 4349: {69 77} {77 73} {73 39} {39 121} 
Flow 4446: {70 77} {77 65} {65 147} 
Flow 4539: {71 76} {76 82} {82 164} 
Flow 4541: {72 76} {76 2} {2 84} 
Flow 4716: {74 77} {77 28} {28 110} 
Flow 4894: {76 77} {77 47} {47 129} 
Flow 5073: {78 75} {75 68} {68 150} 
Flow 5131: {79 75} {75 81} {81 163} 
Flow 5205: {80 75} {75 78} {78 160} 
Flow 5259: {81 75} {75 58} {58 140} 
Flow 5282: {82 76} {76 4} {4 86} 
Time taken running everything: 140 seconds
