networks/zoo_164_5317/standard/zoo_164_5317.sol
<?xml version = "1.0" encoding="UTF-8" standalone="yes"?>
<CPLEXSolution version="1.2">
 <header
   problemName="networks/zoo_164_5317/zoo_164_5317.lp"
   solutionName="incumbent"
   solutionIndex="-1"
   objectiveValue="82"
   solutionTypeValue="3"
   solutionTypeString="primal"
   solutionStatusValue="101"
   solutionStatusString="integer optimal solution"
   solutionMethodString="mip"
   primalFeasible="1"
   dualFeasible="1"
   MIPNodes="2297"
   MIPIterations="112052"
   writeLevel="3"/>
 <quality
   epInt="1.0000000000000001e-05"
   epRHS="9.9999999999999995e-07"
   maxIntInfeas="2.2204460492503131e-16"
   maxPrimalInfeas="2.6645352591003757e-15"
   maxX="4"
   maxSlack="10"/>
 <variables>
  <variable name="Y(6,7)" index="826" value="1"/>
  <variable name="Y(36,41)" index="5780" value="1"/>
  <variable name="Y(75,1)" index="12136" value="1"/>
  <variable name="Y(214,72)" index="35003" value="1"/>
  <variable name="Y(221,79)" index="36158" value="1"/>
  <variable name="Y(247,29)" index="40372" value="1"/>
  <variable name="Y(303,21)" index="49548" value="1"/>
  <variable name="Y(378,34)" index="61861" value="1"/>
  <variable name="Y(487,71)" index="79774" value="1"/>
  <variable name="Y(509,35)" index="83346" value="1"/>
  <variable name="Y(551,23)" index="90222" value="1"/>
  <variable name="Y(636,33)" index="104172" value="1"/>
  <variable name="Y(732,56)" index="119939" value="1"/>
  <variable name="Y(762,52)" index="124855" value="1"/>
  <variable name="Y(789,31)" index="129262" value="1"/>
  <variable name="Y(833,51)" index="136498" value="1"/>
  <variable name="Y(866,27)" index="141886" value="1"/>
  <variable name="Y(961,60)" index="157499" value="1"/>
  <variable name="Y(1004,43)" index="164534" value="1"/>
  <variable name="Y(1049,25)" index="171896" value="1"/>
  <variable name="Y(1120,22)" index="183537" value="1"/>
  <variable name="Y(1236,74)" index="202613" value="1"/>
  <variable name="Y(1257,16)" index="205999" value="1"/>
  <variable name="Y(1342,42)" index="219965" value="1"/>
  <variable name="Y(1380,8)" index="226163" value="1"/>
  <variable name="Y(1461,26)" index="239465" value="1"/>
  <variable name="Y(1565,66)" index="256561" value="1"/>
  <variable name="Y(1591,10)" index="260769" value="1"/>
  <variable name="Y(1664,6)" index="272737" value="1"/>
  <variable name="Y(1736,20)" index="284559" value="1"/>
  <variable name="Y(1755,12)" index="287667" value="1"/>
  <variable name="Y(1856,53)" index="304272" value="1"/>
  <variable name="Y(1891,13)" index="309972" value="1"/>
  <variable name="Y(2007,70)" index="329053" value="1"/>
  <variable name="Y(2055,44)" index="336899" value="1"/>
  <variable name="Y(2093,5)" index="343092" value="1"/>
  <variable name="Y(2173,17)" index="356224" value="1"/>
  <variable name="Y(2263,55)" index="371022" value="1"/>
  <variable name="Y(2312,45)" index="379048" value="1"/>
  <variable name="Y(2381,50)" index="390369" value="0.99999999999999978"/>
  <variable name="Y(2405,75)" index="394330" value="1"/>
  <variable name="Y(2468,62)" index="404649" value="1"/>
  <variable name="Y(2479,73)" index="406464" value="0.99999999999999978"/>
  <variable name="Y(2497,77)" index="409420" value="1"/>
  <variable name="Y(2512,15)" index="411818" value="1"/>
  <variable name="Y(2578,9)" index="422636" value="1"/>
  <variable name="Y(2625,14)" index="430349" value="1"/>
  <variable name="Y(2686,19)" index="440358" value="1"/>
  <variable name="Y(2832,69)" index="464352" value="1"/>
  <variable name="Y(2861,18)" index="469057" value="1"/>
  <variable name="Y(2955,46)" index="484501" value="1"/>
  <variable name="Y(3006,24)" index="492843" value="1"/>
  <variable name="Y(3171,57)" index="519936" value="1"/>
  <variable name="Y(3274,80)" index="536851" value="1"/>
  <variable name="Y(3285,11)" index="538586" value="1"/>
  <variable name="Y(3345,3)" index="548418" value="1"/>
  <variable name="Y(3415,67)" index="559962" value="1"/>
  <variable name="Y(3469,54)" index="568805" value="1"/>
  <variable name="Y(3535,48)" index="579623" value="1"/>
  <variable name="Y(3620,61)" index="593576" value="1"/>
  <variable name="Y(3673,38)" index="602245" value="1"/>
  <variable name="Y(3767,63)" index="617686" value="1"/>
  <variable name="Y(3789,76)" index="621307" value="1"/>
  <variable name="Y(3824,36)" index="627007" value="1"/>
  <variable name="Y(3924,64)" index="643435" value="1"/>
  <variable name="Y(3969,32)" index="650783" value="1"/>
  <variable name="Y(4057,49)" index="665232" value="1"/>
  <variable name="Y(4117,37)" index="675060" value="1"/>
  <variable name="Y(4180,30)" index="685385" value="1"/>
  <variable name="Y(4271,40)" index="700319" value="1"/>
  <variable name="Y(4290,59)" index="703454" value="1"/>
  <variable name="Y(4349,39)" index="713110" value="1"/>
  <variable name="Y(4446,65)" index="729044" value="1"/>
  <variable name="Y(4539,82)" index="744313" value="1"/>
  <variable name="Y(4541,2)" index="744561" value="1"/>
  <variable name="Y(4716,28)" index="773287" value="1"/>
  <variable name="Y(4894,47)" index="802498" value="1"/>
  <variable name="Y(5073,68)" index="831875" value="1"/>
  <variable name="Y(5131,81)" index="841400" value="1"/>
  <variable name="Y(5205,78)" index="853533" value="1"/>
  <variable name="Y(5259,58)" index="862369" value="1"/>
  <variable name="Y(5282,4)" index="866087" value="1"/>
  <variable name="X(1,76,6)" index="871993" value="1"/>
  <variable name="X(1,83,75)" index="877379" value="1"/>
  <variable name="X(2,76,75)" index="882696" value="1"/>
  <variable name="X(2,84,4541)" index="892479" value="1"/>
  <variable name="X(3,76,214)" index="893469" value="1"/>
  <variable name="X(3,85,3345)" index="901917" value="1"/>
  <variable name="X(4,76,247)" index="904136" value="1"/>
  <variable name="X(4,86,5282)" index="914488" value="1"/>
  <variable name="X(5,77,303)" index="914826" value="1"/>
  <variable name="X(5,87,2093)" index="921933" value="1"/>
  <variable name="X(6,77,378)" index="925535" value="1"/>
  <variable name="X(6,88,1664)" index="932138" value="1"/>
  <variable name="X(7,76,487)" index="936278" value="1"/>
  <variable name="X(7,89,6)" index="941114" value="1"/>
  <variable name="X(8,77,509)" index="946934" value="1"/>
  <variable name="X(8,90,1380)" index="953122" value="1"/>
  <variable name="X(9,77,551)" index="957610" value="1"/>
  <variable name="X(9,91,2578)" index="964954" value="1"/>
  <variable name="X(10,77,636)" index="968329" value="1"/>
  <variable name="X(10,92,1591)" index="974601" value="1"/>
  <variable name="X(11,77,732)" index="979059" value="1"/>
  <variable name="X(11,93,3285)" index="986929" value="1"/>
  <variable name="X(12,75,762)" index="989723" value="1"/>
  <variable name="X(12,94,1755)" index="996033" value="1"/>
  <variable name="X(13,77,789)" index="1000384" value="1"/>
  <variable name="X(13,95,1891)" index="1006803" value="1"/>
  <variable name="X(14,77,833)" index="1011062" value="1"/>
  <variable name="X(14,96,2625)" index="1018171" value="1"/>
  <variable name="X(15,77,866)" index="1021729" value="1"/>
  <variable name="X(15,97,2512)" index="1028692" value="1"/>
  <variable name="X(16,77,961)" index="1032458" value="1"/>
  <variable name="X(16,98,1257)" index="1038071" value="1"/>
  <variable name="X(17,77,1004)" index="1043135" value="1"/>
  <variable name="X(17,99,2173)" index="1049621" value="1"/>
  <variable name="X(18,77,1049)" index="1053814" value="1"/>
  <variable name="X(18,100,2861)" index="1060943" value="1"/>
  <variable name="X(19,77,1120)" index="1064519" value="1"/>
  <variable name="X(19,101,2686)" index="1071402" value="1"/>
  <variable name="X(20,77,1236)" index="1075269" value="1"/>
  <variable name="X(20,102,1736)" index="1081086" value="1"/>
  <variable name="X(21,77,1257)" index="1085924" value="1"/>
  <variable name="X(21,103,303)" index="1090287" value="1"/>
  <variable name="X(22,77,1342)" index="1096643" value="1"/>
  <variable name="X(22,104,1120)" index="1101738" value="1"/>
  <variable name="X(23,77,1380)" index="1107315" value="1"/>
  <variable name="X(23,105,551)" index="1111803" value="1"/>
  <variable name="X(24,77,1461)" index="1118030" value="1"/>
  <variable name="X(24,106,3006)" index="1124892" value="1"/>
  <variable name="X(25,77,1565)" index="1128768" value="1"/>
  <variable name="X(25,107,1049)" index="1133569" value="1"/>
  <variable name="X(26,77,1591)" index="1139428" value="1"/>
  <variable name="X(26,108,1461)" index="1144615" value="1"/>
  <variable name="X(27,77,1664)" index="1150135" value="1"/>
  <variable name="X(27,109,866)" index="1154654" value="1"/>
  <variable name="X(28,77,1736)" index="1160841" value="1"/>
  <variable name="X(28,110,4716)" index="1169138" value="1"/>
  <variable name="X(29,75,1755)" index="1171494" value="1"/>
  <variable name="X(29,111,247)" index="1175303" value="1"/>
  <variable name="X(30,77,1856)" index="1182229" value="1"/>
  <variable name="X(30,112,4180)" index="1189870" value="1"/>
  <variable name="X(31,77,1891)" index="1192898" value="1"/>
  <variable name="X(31,113,789)" index="1197113" value="1"/>
  <variable name="X(32,77,2007)" index="1203648" value="1"/>
  <variable name="X(32,114,3969)" index="1210927" value="1"/>
  <variable name="X(33,77,2055)" index="1214330" value="1"/>
  <variable name="X(33,115,636)" index="1218228" value="1"/>
  <variable name="X(34,77,2093)" index="1225002" value="1"/>
  <variable name="X(34,116,378)" index="1228604" value="1"/>
  <variable name="X(35,40,4271)" index="1237814" value="1"/>
  <variable name="X(35,77,2497)" index="1241357" value="1"/>
  <variable name="X(35,117,509)" index="1244686" value="1"/>
  <variable name="X(36,77,2263)" index="1251757" value="1"/>
  <variable name="X(36,118,3824)" index="1258635" value="1"/>
  <variable name="X(37,77,2312)" index="1262440" value="1"/>
  <variable name="X(37,119,4117)" index="1269562" value="1"/>
  <variable name="X(38,50,2381)" index="1273143" value="1"/>
  <variable name="X(38,120,3673)" index="1279752" value="1"/>
  <variable name="X(39,73,2479)" index="1283875" value="1"/>
  <variable name="X(39,121,4349)" index="1291062" value="1"/>
  <variable name="X(40,35,2497)" index="1294527" value="1"/>
  <variable name="X(40,122,4271)" index="1301618" value="1"/>
  <variable name="X(41,45,2512)" index="1305176" value="1"/>
  <variable name="X(41,123,36)" index="1308017" value="1"/>
  <variable name="X(42,77,2578)" index="1315876" value="1"/>
  <variable name="X(42,124,1342)" index="1319957" value="1"/>
  <variable name="X(43,77,2625)" index="1326557" value="1"/>
  <variable name="X(43,125,1004)" index="1330253" value="1"/>
  <variable name="X(44,77,2686)" index="1337252" value="1"/>
  <variable name="X(44,126,2055)" index="1341938" value="1"/>
  <variable name="X(45,41,36)" index="1345236" value="1"/>
  <variable name="X(45,77,2512)" index="1353029" value="1"/>
  <variable name="X(45,127,2312)" index="1358146" value="1"/>
  <variable name="X(46,77,2832)" index="1363983" value="1"/>
  <variable name="X(46,128,2955)" index="1369423" value="1"/>
  <variable name="X(47,77,2861)" index="1374646" value="1"/>
  <variable name="X(47,129,4894)" index="1381996" value="1"/>
  <variable name="X(48,77,2955)" index="1385374" value="1"/>
  <variable name="X(48,130,3535)" index="1391271" value="1"/>
  <variable name="X(49,77,3006)" index="1396059" value="1"/>
  <variable name="X(49,131,4057)" index="1402427" value="1"/>
  <variable name="X(50,38,3673)" index="1407360" value="1"/>
  <variable name="X(50,77,2405)" index="1411409" value="1"/>
  <variable name="X(50,132,2381)" index="1416702" value="0.99999999999999978"/>
  <variable name="X(51,77,3171)" index="1422809" value="1"/>
  <variable name="X(51,133,833)" index="1425788" value="1"/>
  <variable name="X(52,75,3274)" index="1433546" value="1"/>
  <variable name="X(52,134,762)" index="1436351" value="1"/>
  <variable name="X(53,77,3285)" index="1444191" value="1"/>
  <variable name="X(53,135,1856)" index="1448079" value="1"/>
  <variable name="X(54,77,3345)" index="1454885" value="1"/>
  <variable name="X(54,136,3469)" index="1460326" value="1"/>
  <variable name="X(55,77,3415)" index="1465589" value="1"/>
  <variable name="X(55,137,2263)" index="1469754" value="1"/>
  <variable name="X(56,77,3469)" index="1476277" value="1"/>
  <variable name="X(56,138,732)" index="1478857" value="1"/>
  <variable name="X(57,77,3535)" index="1486977" value="1"/>
  <variable name="X(57,139,3171)" index="1491930" value="1"/>
  <variable name="X(58,75,3620)" index="1497696" value="1"/>
  <variable name="X(58,140,5259)" index="1504652" value="1"/>
  <variable name="X(59,75,3673)" index="1508383" value="1"/>
  <variable name="X(59,141,4290)" index="1514317" value="1"/>
  <variable name="X(60,77,3767)" index="1519111" value="1"/>
  <variable name="X(60,142,961)" index="1521622" value="1"/>
  <variable name="X(61,75,3789)" index="1529767" value="1"/>
  <variable name="X(61,143,3620)" index="1534915" value="1"/>
  <variable name="X(62,77,3824)" index="1540436" value="1"/>
  <variable name="X(62,144,2468)" index="1544397" value="1"/>
  <variable name="X(63,77,3924)" index="1551170" value="1"/>
  <variable name="X(63,145,3767)" index="1556330" value="1"/>
  <variable name="X(64,77,3969)" index="1561849" value="1"/>
  <variable name="X(64,146,3924)" index="1567121" value="1"/>
  <variable name="X(65,77,4057)" index="1572571" value="1"/>
  <variable name="X(65,147,4446)" index="1578277" value="1"/>
  <variable name="X(66,77,4117)" index="1583265" value="1"/>
  <variable name="X(66,148,1565)" index="1586030" value="1"/>
  <variable name="X(67,77,4180)" index="1593962" value="1"/>
  <variable name="X(67,149,3415)" index="1598514" value="1"/>
  <variable name="X(68,75,4290)" index="1604706" value="1"/>
  <variable name="X(68,150,5073)" index="1610806" value="1"/>
  <variable name="X(69,77,4349)" index="1615399" value="1"/>
  <variable name="X(69,151,2832)" index="1619199" value="1"/>
  <variable name="X(70,77,4446)" index="1626130" value="1"/>
  <variable name="X(70,152,2007)" index="1629008" value="1"/>
  <variable name="X(71,76,4539)" index="1636857" value="1"/>
  <variable name="X(71,153,487)" index="1638122" value="1"/>
  <variable name="X(72,76,4541)" index="1647493" value="1"/>
  <variable name="X(72,154,214)" index="1648483" value="1"/>
  <variable name="X(73,39,4349)" index="1657935" value="1"/>
  <variable name="X(73,77,2468)" index="1661371" value="1"/>
  <variable name="X(73,155,2479)" index="1666699" value="0.99999999999999978"/>
  <variable name="X(74,77,4716)" index="1674253" value="1"/>
  <variable name="X(74,156,1236)" index="1676090" value="1"/>
  <variable name="X(75,12,1755)" index="1681926" value="1"/>
  <variable name="X(75,29,247)" index="1685735" value="1"/>
  <variable name="X(75,52,762)" index="1691567" value="1"/>
  <variable name="X(75,58,5259)" index="1701381" value="1"/>
  <variable name="X(75,59,4290)" index="1705729" value="1"/>
  <variable name="X(75,61,3620)" index="1710376" value="1"/>
  <variable name="X(75,68,5073)" index="1717146" value="1"/>
  <variable name="X(75,76,3789)" index="1721179" value="1"/>
  <variable name="X(75,77,3673)" index="1726380" value="1"/>
  <variable name="X(75,78,5205)" index="1733229" value="1"/>
  <variable name="X(75,79,221)" index="1733562" value="1"/>
  <variable name="X(75,80,3274)" index="1741932" value="1"/>
  <variable name="X(75,81,5131)" index="1749106" value="1"/>
  <variable name="X(75,157,2405)" index="1751697" value="1"/>
  <variable name="X(76,1,75)" index="1754684" value="1"/>
  <variable name="X(76,2,4541)" index="1764467" value="1"/>
  <variable name="X(76,3,3345)" index="1768588" value="1"/>
  <variable name="X(76,4,5282)" index="1775842" value="1"/>
  <variable name="X(76,7,6)" index="1775883" value="1"/>
  <variable name="X(76,71,487)" index="1781681" value="1"/>
  <variable name="X(76,72,214)" index="1786725" value="1"/>
  <variable name="X(76,75,247)" index="1792075" value="1"/>
  <variable name="X(76,77,4894)" index="1802039" value="1"/>
  <variable name="X(76,82,4539)" index="1807001" value="1"/>
  <variable name="X(76,158,3789)" index="1811568" value="1"/>
  <variable name="X(77,5,2093)" index="1815189" value="1"/>
  <variable name="X(77,6,1664)" index="1820077" value="1"/>
  <variable name="X(77,8,1380)" index="1825110" value="1"/>
  <variable name="X(77,9,2578)" index="1831625" value="1"/>
  <variable name="X(77,10,1591)" index="1835955" value="1"/>
  <variable name="X(77,11,3285)" index="1842966" value="1"/>
  <variable name="X(77,13,1891)" index="1846889" value="1"/>
  <variable name="X(77,14,2625)" index="1852940" value="1"/>
  <variable name="X(77,15,2512)" index="1858144" value="1"/>
  <variable name="X(77,16,1257)" index="1862206" value="1"/>
  <variable name="X(77,17,2173)" index="1868439" value="1"/>
  <variable name="X(77,18,2861)" index="1874444" value="1"/>
  <variable name="X(77,19,2686)" index="1879586" value="1"/>
  <variable name="X(77,20,1736)" index="1883953" value="1"/>
  <variable name="X(77,21,303)" index="1887837" value="1"/>
  <variable name="X(77,22,1120)" index="1893971" value="1"/>
  <variable name="X(77,23,551)" index="1898719" value="1"/>
  <variable name="X(77,24,3006)" index="1906491" value="1"/>
  <variable name="X(77,25,1049)" index="1909851" value="1"/>
  <variable name="X(77,26,1461)" index="1915580" value="1"/>
  <variable name="X(77,27,866)" index="1920302" value="1"/>
  <variable name="X(77,28,4716)" index="1929469" value="1"/>
  <variable name="X(77,30,4180)" index="1934250" value="1"/>
  <variable name="X(77,31,789)" index="1936176" value="1"/>
  <variable name="X(77,32,3969)" index="1944673" value="1"/>
  <variable name="X(77,33,636)" index="1946657" value="1"/>
  <variable name="X(77,34,378)" index="1951716" value="1"/>
  <variable name="X(77,35,509)" index="1957164" value="1"/>
  <variable name="X(77,36,3824)" index="1965796" value="1"/>
  <variable name="X(77,37,4117)" index="1971406" value="1"/>
  <variable name="X(77,42,1342)" index="1973948" value="1"/>
  <variable name="X(77,43,1004)" index="1978927" value="1"/>
  <variable name="X(77,44,2055)" index="1985295" value="1"/>
  <variable name="X(77,45,2312)" index="1990869" value="1"/>
  <variable name="X(77,46,2955)" index="1996829" value="1"/>
  <variable name="X(77,47,4894)" index="2004085" value="1"/>
  <variable name="X(77,48,3535)" index="2008043" value="1"/>
  <variable name="X(77,49,4057)" index="2013882" value="1"/>
  <variable name="X(77,50,3673)" index="2018815" value="1"/>
  <variable name="X(77,51,833)" index="2021292" value="1"/>
  <variable name="X(77,53,1856)" index="2027632" value="1"/>
  <variable name="X(77,54,3469)" index="2034562" value="1"/>
  <variable name="X(77,55,2263)" index="2038673" value="1"/>
  <variable name="X(77,56,732)" index="2042459" value="1"/>
  <variable name="X(77,57,3171)" index="2050215" value="1"/>
  <variable name="X(77,60,961)" index="2053322" value="1"/>
  <variable name="X(77,62,2468)" index="2060146" value="1"/>
  <variable name="X(77,63,3767)" index="2066762" value="1"/>
  <variable name="X(77,64,3924)" index="2072236" value="1"/>
  <variable name="X(77,65,4446)" index="2078075" value="1"/>
  <variable name="X(77,66,1565)" index="2080511" value="1"/>
  <variable name="X(77,67,3415)" index="2087678" value="1"/>
  <variable name="X(77,69,2832)" index="2092412" value="1"/>
  <variable name="X(77,70,2007)" index="2096904" value="1"/>
  <variable name="X(77,73,4349)" index="2104563" value="1"/>
  <variable name="X(77,74,1236)" index="2106767" value="1"/>
  <variable name="X(77,75,2405)" index="2113253" value="1"/>
  <variable name="X(77,76,3345)" index="2119510" value="1"/>
  <variable name="X(77,159,2497)" index="2123979" value="1"/>
  <variable name="X(78,75,5073)" index="2131872" value="1"/>
  <variable name="X(78,160,5205)" index="2137321" value="1"/>
  <variable name="X(79,75,5131)" index="2142564" value="1"/>
  <variable name="X(79,161,221)" index="2142971" value="1"/>
  <variable name="X(80,75,5205)" index="2153272" value="1"/>
  <variable name="X(80,162,3274)" index="2156658" value="1"/>
  <variable name="X(81,75,5259)" index="2163960" value="1"/>
  <variable name="X(81,163,5131)" index="2169149" value="1"/>
  <variable name="X(82,76,5282)" index="2174617" value="1"/>
  <variable name="X(82,164,4539)" index="2179191" value="1"/>
  <variable name="C(6,76)" index="2179988" value="1"/>
  <variable name="C(6,7)" index="2179989" value="2"/>
  <variable name="C(36,41)" index="2180112" value="1"/>
  <variable name="C(75,76)" index="2180259" value="1"/>
  <variable name="C(75,1)" index="2180260" value="2"/>
  <variable name="C(214,76)" index="2180805" value="1"/>
  <variable name="C(214,72)" index="2180806" value="2"/>
  <variable name="C(221,79)" index="2180830" value="1"/>
  <variable name="C(247,76)" index="2180928" value="1"/>
  <variable name="C(247,75)" index="2180929" value="2"/>
  <variable name="C(247,29)" index="2180930" value="3"/>
  <variable name="C(303,77)" index="2181137" value="1"/>
  <variable name="C(303,21)" index="2181138" value="2"/>
  <variable name="C(378,77)" index="2181381" value="1"/>
  <variable name="C(378,34)" index="2181382" value="2"/>
  <variable name="C(487,76)" index="2181785" value="1"/>
  <variable name="C(487,71)" index="2181786" value="2"/>
  <variable name="C(509,77)" index="2181858" value="1"/>
  <variable name="C(509,35)" index="2181859" value="2"/>
  <variable name="C(551,77)" index="2181996" value="1"/>
  <variable name="C(551,23)" index="2181997" value="2"/>
  <variable name="C(636,77)" index="2182273" value="1"/>
  <variable name="C(636,33)" index="2182274" value="2"/>
  <variable name="C(732,77)" index="2182586" value="1"/>
  <variable name="C(732,56)" index="2182587" value="2"/>
  <variable name="C(762,75)" index="2182689" value="1"/>
  <variable name="C(762,52)" index="2182690" value="2"/>
  <variable name="C(789,77)" index="2182775" value="1"/>
  <variable name="C(789,31)" index="2182776" value="2"/>
  <variable name="C(833,77)" index="2182919" value="1"/>
  <variable name="C(833,51)" index="2182920" value="2"/>
  <variable name="C(866,77)" index="2183027" value="1"/>
  <variable name="C(866,27)" index="2183028" value="2"/>
  <variable name="C(961,77)" index="2183336" value="1"/>
  <variable name="C(961,60)" index="2183337" value="2"/>
  <variable name="C(1004,77)" index="2183478" value="1"/>
  <variable name="C(1004,43)" index="2183479" value="2"/>
  <variable name="C(1049,77)" index="2183628" value="1"/>
  <variable name="C(1049,25)" index="2183629" value="2"/>
  <variable name="C(1120,77)" index="2183862" value="1"/>
  <variable name="C(1120,22)" index="2183863" value="2"/>
  <variable name="C(1236,77)" index="2184240" value="1"/>
  <variable name="C(1236,74)" index="2184241" value="2"/>
  <variable name="C(1257,77)" index="2184311" value="1"/>
  <variable name="C(1257,16)" index="2184312" value="2"/>
  <variable name="C(1342,77)" index="2184586" value="1"/>
  <variable name="C(1342,42)" index="2184587" value="2"/>
  <variable name="C(1380,77)" index="2184713" value="1"/>
  <variable name="C(1380,8)" index="2184714" value="2"/>
  <variable name="C(1461,77)" index="2184975" value="1"/>
  <variable name="C(1461,26)" index="2184976" value="2"/>
  <variable name="C(1565,77)" index="2185314" value="1"/>
  <variable name="C(1565,66)" index="2185315" value="2"/>
  <variable name="C(1591,77)" index="2185404" value="1"/>
  <variable name="C(1591,10)" index="2185405" value="2"/>
  <variable name="C(1664,77)" index="2185643" value="1"/>
  <variable name="C(1664,6)" index="2185644" value="2"/>
  <variable name="C(1736,77)" index="2185876" value="1"/>
  <variable name="C(1736,20)" index="2185877" value="2"/>
  <variable name="C(1755,75)" index="2185943" value="1"/>
  <variable name="C(1755,12)" index="2185944" value="2"/>
  <variable name="C(1856,77)" index="2186303" value="1"/>
  <variable name="C(1856,53)" index="2186304" value="2"/>
  <variable name="C(1891,77)" index="2186423" value="1"/>
  <variable name="C(1891,13)" index="2186424" value="2"/>
  <variable name="C(2007,77)" index="2186798" value="1"/>
  <variable name="C(2007,70)" index="2186799" value="2"/>
  <variable name="C(2055,77)" index="2186957" value="1"/>
  <variable name="C(2055,44)" index="2186958" value="2"/>
  <variable name="C(2093,77)" index="2187084" value="1"/>
  <variable name="C(2093,5)" index="2187085" value="2"/>
  <variable name="C(2173,17)" index="2187346" value="1"/>
  <variable name="C(2263,77)" index="2187635" value="1"/>
  <variable name="C(2263,55)" index="2187636" value="2"/>
  <variable name="C(2312,77)" index="2187797" value="1"/>
  <variable name="C(2312,45)" index="2187798" value="2"/>
  <variable name="C(2381,50)" index="2188061" value="1"/>
  <variable name="C(2405,77)" index="2188163" value="1"/>
  <variable name="C(2405,75)" index="2188164" value="2"/>
  <variable name="C(2468,77)" index="2188431" value="1"/>
  <variable name="C(2468,62)" index="2188432" value="2"/>
  <variable name="C(2479,73)" index="2188477" value="1"/>
  <variable name="C(2497,35)" index="2188551" value="1"/>
  <variable name="C(2497,77)" index="2188552" value="2"/>
  <variable name="C(2512,45)" index="2188616" value="1"/>
  <variable name="C(2512,77)" index="2188617" value="2"/>
  <variable name="C(2512,15)" index="2188618" value="3"/>
  <variable name="C(2578,77)" index="2188890" value="1"/>
  <variable name="C(2578,9)" index="2188891" value="2"/>
  <variable name="C(2625,77)" index="2189045" value="1"/>
  <variable name="C(2625,14)" index="2189046" value="2"/>
  <variable name="C(2686,77)" index="2189246" value="1"/>
  <variable name="C(2686,19)" index="2189247" value="2"/>
  <variable name="C(2832,77)" index="2189720" value="1"/>
  <variable name="C(2832,69)" index="2189721" value="2"/>
  <variable name="C(2861,77)" index="2189819" value="1"/>
  <variable name="C(2861,18)" index="2189820" value="2"/>
  <variable name="C(2955,77)" index="2190123" value="1"/>
  <variable name="C(2955,46)" index="2190124" value="2"/>
  <variable name="C(3006,77)" index="2190292" value="1"/>
  <variable name="C(3006,24)" index="2190293" value="2"/>
  <variable name="C(3171,77)" index="2190826" value="1"/>
  <variable name="C(3171,57)" index="2190827" value="2"/>
  <variable name="C(3274,75)" index="2191214" value="1"/>
  <variable name="C(3274,80)" index="2191215" value="2"/>
  <variable name="C(3285,77)" index="2191252" value="1"/>
  <variable name="C(3285,11)" index="2191253" value="2"/>
  <variable name="C(3345,77)" index="2191448" value="1"/>
  <variable name="C(3345,76)" index="2191449" value="2"/>
  <variable name="C(3345,3)" index="2191450" value="3"/>
  <variable name="C(3415,77)" index="2191677" value="1"/>
  <variable name="C(3415,67)" index="2191678" value="2"/>
  <variable name="C(3469,77)" index="2191850" value="1"/>
  <variable name="C(3469,54)" index="2191851" value="2"/>
  <variable name="C(3535,77)" index="2192066" value="1"/>
  <variable name="C(3535,48)" index="2192067" value="2"/>
  <variable name="C(3620,75)" index="2192385" value="1"/>
  <variable name="C(3620,61)" index="2192386" value="2"/>
  <variable name="C(3673,75)" index="2192585" value="1.0000000000000029"/>
  <variable name="C(3673,77)" index="2192586" value="2"/>
  <variable name="C(3673,50)" index="2192587" value="3"/>
  <variable name="C(3673,38)" index="2192588" value="4"/>
  <variable name="C(3767,77)" index="2192909" value="1"/>
  <variable name="C(3767,63)" index="2192910" value="2"/>
  <variable name="C(3789,61)" index="2192981" value="2"/>
  <variable name="C(3789,75)" index="2192982" value="3"/>
  <variable name="C(3789,76)" index="2192983" value="4"/>
  <variable name="C(3824,77)" index="2193094" value="1"/>
  <variable name="C(3824,36)" index="2193095" value="2"/>
  <variable name="C(3924,77)" index="2193422" value="1"/>
  <variable name="C(3924,64)" index="2193423" value="2"/>
  <variable name="C(3969,77)" index="2193571" value="1"/>
  <variable name="C(3969,32)" index="2193572" value="2"/>
  <variable name="C(4057,77)" index="2193858" value="1"/>
  <variable name="C(4057,49)" index="2193859" value="2"/>
  <variable name="C(4117,77)" index="2194054" value="1"/>
  <variable name="C(4117,37)" index="2194055" value="2"/>
  <variable name="C(4180,77)" index="2194261" value="1"/>
  <variable name="C(4180,30)" index="2194262" value="2"/>
  <variable name="C(4271,40)" index="2194591" value="1"/>
  <variable name="C(4290,75)" index="2194664" value="1"/>
  <variable name="C(4290,59)" index="2194665" value="2"/>
  <variable name="C(4349,77)" index="2194862" value="1"/>
  <variable name="C(4349,73)" index="2194863" value="2"/>
  <variable name="C(4349,39)" index="2194864" value="3"/>
  <variable name="C(4446,77)" index="2195180" value="1"/>
  <variable name="C(4446,65)" index="2195181" value="2"/>
  <variable name="C(4539,76)" index="2195535" value="1"/>
  <variable name="C(4539,82)" index="2195536" value="2"/>
  <variable name="C(4541,76)" index="2195541" value="1"/>
  <variable name="C(4541,2)" index="2195542" value="2"/>
  <variable name="C(4716,77)" index="2196160" value="1"/>
  <variable name="C(4716,28)" index="2196161" value="2"/>
  <variable name="C(4894,77)" index="2196699" value="1"/>
  <variable name="C(4894,47)" index="2196700" value="2"/>
  <variable name="C(5073,75)" index="2197233" value="1"/>
  <variable name="C(5073,68)" index="2197234" value="2"/>
  <variable name="C(5131,75)" index="2197450" value="1"/>
  <variable name="C(5131,81)" index="2197451" value="2"/>
  <variable name="C(5205,75)" index="2197737" value="1"/>
  <variable name="C(5205,78)" index="2197738" value="2"/>
  <variable name="C(5259,75)" index="2197950" value="1"/>
  <variable name="C(5259,58)" index="2197951" value="2"/>
  <variable name="C(5282,76)" index="2198031" value="1"/>
  <variable name="C(5282,4)" index="2198032" value="2"/>
 </variables>
</CPLEXSolution>
